networks/zoo_65_634/zoo_65_634-lower.txt
Number of groups: 32
Flow 1: {1 2 0} {2 35 0} 
Flow 2: {1 25 0} {25 4 0} {4 37 0} 
Flow 3: {4 5 0} {5 38 0} 
Flow 4: {25 22 0} {22 21 0} {21 6 0} {6 39 0} 
Flow 5: {1 7 0} {7 40 0} 
Flow 6: {7 8 0} {8 41 0} 
Flow 7: {21 9 0} {9 42 0} 
Flow 8: {22 14 0} {14 11 0} {11 44 0} 
Flow 9: {14 47 0} 
Flow 10: {14 15 0} {15 48 0} 
Flow 11: {8 17 0} {17 50 0} 
Flow 12: {17 18 0} {18 51 0} 
Flow 13: {21 19 0} {19 52 0} 
Flow 14: {21 54 0} 
Flow 15: {22 55 0} 
Flow 16: {17 23 0} {23 56 0} 
Flow 17: {25 24 0} {24 57 0} 
Flow 18: {25 58 0} 
Flow 19: {22 28 0} {28 27 0} {27 60 0} 
Flow 20: {22 29 0} {29 62 0} 
Flow 21: {22 31 0} {31 64 0} 
Flow 22: {31 32 0} {32 65 0} 
Flow 23: {2 1 0} {1 34 0} 
Flow 24: {25 3 0} {3 36 0} 
Flow 27: {2 7 0} {8 21 0} Flow 31: {21 10 0} {10 43 0} 
Flow 32: {21 11 0} Flow 33: {22 12 0} {12 45 0} 
Flow 34: {22 13 0} {13 46 0} 
Flow 40: {22 20 0} {20 53 0} 
Flow 46: {9 26 0} {26 59 0} 
Flow 48: {28 61 0} 
Flow 50: {22 30 0} {30 63 0} 
Flow 53: {3 25 0} {25 1 0} Flow 57: {3 22 0} Flow 59: {21 8 0} Flow 67: {19 18 0} Flow 81: {4 25 0} Flow 85: {5 21 0} Flow 111: {5 4 0} Flow 118: {11 14 0} Flow 122: {21 22 0} Flow 126: {6 21 0} {8 7 0} {7 1 0} Flow 127: {7 2 0} Flow 128: {22 3 0} Flow 129: {21 5 0} Flow 133: {6 9 0} Flow 142: {21 20 0} Flow 146: {22 25 0} Flow 148: {26 27 0} Flow 199: {9 21 0} Flow 204: {9 6 0} Flow 224: {27 28 0} Flow 229: {10 21 0} Flow 252: {12 22 0} Flow 256: {13 22 0} Flow 259: {14 22 0} Flow 262: {11 21 0} Flow 276: {15 14 0} Flow 281: {16 17 0} {17 8 0} Flow 298: {18 19 0} Flow 310: {18 17 0} Flow 312: {19 21 0} Flow 345: {20 21 0} Flow 347: {20 22 0} Flow 363: {17 16 0} {16 49 0} 
Flow 410: {23 17 0} Flow 428: {24 25 0} Flow 444: {24 33 0} {33 32 0} Flow 468: {26 9 0} Flow 495: {28 22 0} Flow 499: {27 26 0} Flow 525: {29 22 0} Flow 552: {30 22 0} Flow 579: {30 29 0} Flow 582: {31 22 0} Flow 600: {32 31 0} Flow 622: {32 33 0} {33 24 0} Time taken running everything: 1 seconds
