networks/zoo_65_634/zoo_65_634-lower.sol
<?xml version = "1.0" encoding="UTF-8" standalone="yes"?>
<CPLEXSolution version="1.2">
 <header
   problemName="networks/zoo_65_634/zoo_65_634-lower.lp"
   solutionName="incumbent"
   solutionIndex="-1"
   objectiveValue="42"
   solutionTypeValue="3"
   solutionTypeString="primal"
   solutionStatusValue="101"
   solutionStatusString="integer optimal solution"
   solutionMethodString="mip"
   primalFeasible="1"
   dualFeasible="1"
   MIPNodes="0"
   MIPIterations="1119"
   writeLevel="3"/>
 <quality
   epInt="1.0000000000000001e-05"
   epRHS="9.9999999999999995e-07"
   maxIntInfeas="0"
   maxPrimalInfeas="0"
   maxX="1"
   maxSlack="1"/>
 <variables>
  <variable name="Y(1,2)" index="1" value="1"/>
  <variable name="Y(19,27)" index="1196" value="1"/>
  <variable name="Y(24,3)" index="1497" value="1"/>
  <variable name="Y(32,11)" index="2025" value="1"/>
  <variable name="Y(58,7)" index="3711" value="1"/>
  <variable name="Y(69,22)" index="4441" value="1"/>
  <variable name="Y(96,18)" index="6192" value="1"/>
  <variable name="Y(102,25)" index="6589" value="1"/>
  <variable name="Y(118,14)" index="7618" value="1"/>
  <variable name="Y(142,20)" index="9184" value="1"/>
  <variable name="Y(148,26)" index="9580" value="1"/>
  <variable name="Y(154,1)" index="9945" value="1"/>
  <variable name="Y(230,7)" index="14891" value="1"/>
  <variable name="Y(250,31)" index="16215" value="1"/>
  <variable name="Y(252,9)" index="16323" value="1"/>
  <variable name="Y(257,13)" index="16652" value="1"/>
  <variable name="Y(273,22)" index="17701" value="1"/>
  <variable name="Y(278,17)" index="18021" value="1"/>
  <variable name="Y(282,16)" index="18280" value="1"/>
  <variable name="Y(302,23)" index="19587" value="1"/>
  <variable name="Y(313,4)" index="20283" value="1"/>
  <variable name="Y(317,8)" index="20547" value="1"/>
  <variable name="Y(346,21)" index="22445" value="1"/>
  <variable name="Y(347,22)" index="22511" value="1"/>
  <variable name="Y(353,21)" index="22900" value="1"/>
  <variable name="Y(363,16)" index="23545" value="1"/>
  <variable name="Y(372,26)" index="24140" value="1"/>
  <variable name="Y(393,15)" index="25494" value="1"/>
  <variable name="Y(407,30)" index="26419" value="1"/>
  <variable name="Y(421,19)" index="27318" value="1"/>
  <variable name="Y(431,5)" index="27954" value="1"/>
  <variable name="Y(444,33)" index="28827" value="1"/>
  <variable name="Y(473,6)" index="30685" value="1"/>
  <variable name="Y(504,10)" index="32704" value="1"/>
  <variable name="Y(517,25)" index="33564" value="1"/>
  <variable name="Y(518,28)" index="33632" value="1"/>
  <variable name="Y(536,13)" index="34787" value="1"/>
  <variable name="Y(563,12)" index="36541" value="1"/>
  <variable name="Y(579,29)" index="37598" value="1"/>
  <variable name="Y(599,32)" index="38901" value="1"/>
  <variable name="Y(602,22)" index="39086" value="1"/>
  <variable name="Y(622,24)" index="40388" value="1"/>
  <variable name="X(1,2,1)" index="41210" value="1"/>
  <variable name="X(1,7,58)" index="41901" value="1"/>
  <variable name="X(1,25,24)" index="42501" value="1"/>
  <variable name="X(1,34,154)" index="43265" value="1"/>
  <variable name="X(2,1,24)" index="43769" value="1"/>
  <variable name="X(2,7,32)" index="44411" value="1"/>
  <variable name="X(2,35,1)" index="45014" value="1"/>
  <variable name="X(3,22,69)" index="45716" value="1"/>
  <variable name="X(3,25,58)" index="46339" value="1"/>
  <variable name="X(3,36,24)" index="46939" value="1"/>
  <variable name="X(4,5,431)" index="47980" value="1"/>
  <variable name="X(4,25,102)" index="48285" value="1"/>
  <variable name="X(4,37,313)" index="49130" value="1"/>
  <variable name="X(5,4,313)" index="49764" value="1"/>
  <variable name="X(5,21,96)" index="50181" value="1"/>
  <variable name="X(5,38,431)" index="51150" value="1"/>
  <variable name="X(6,9,148)" index="51501" value="1"/>
  <variable name="X(6,21,142)" index="52129" value="1"/>
  <variable name="X(6,39,473)" index="53094" value="1"/>
  <variable name="X(7,1,154)" index="53409" value="1"/>
  <variable name="X(7,2,230)" index="54119" value="1"/>
  <variable name="X(7,8,32)" index="54555" value="1"/>
  <variable name="X(7,40,58)" index="55215" value="1"/>
  <variable name="X(8,7,230)" index="56021" value="1"/>
  <variable name="X(8,17,278)" index="56703" value="1"/>
  <variable name="X(8,21,32)" index="57091" value="1"/>
  <variable name="X(8,41,317)" index="58010" value="1"/>
  <variable name="X(9,6,473)" index="58800" value="1"/>
  <variable name="X(9,21,504)" index="59465" value="1"/>
  <variable name="X(9,26,148)" index="59743" value="1"/>
  <variable name="X(9,42,252)" index="60481" value="1"/>
  <variable name="X(10,21,250)" index="61113" value="1"/>
  <variable name="X(10,43,504)" index="62001" value="1"/>
  <variable name="X(11,14,118)" index="62249" value="1"/>
  <variable name="X(11,21,278)" index="63043" value="1"/>
  <variable name="X(11,44,32)" index="63431" value="1"/>
  <variable name="X(12,22,252)" index="64285" value="1"/>
  <variable name="X(12,45,563)" index="65230" value="1"/>
  <variable name="X(13,22,257)" index="65558" value="1"/>
  <variable name="X(13,46,536)" index="66471" value="1"/>
  <variable name="X(14,11,278)" index="66847" value="1"/>
  <variable name="X(14,15,393)" index="67596" value="1"/>
  <variable name="X(14,22,273)" index="68110" value="1"/>
  <variable name="X(14,47,118)" index="68589" value="1"/>
  <variable name="X(15,14,278)" index="69383" value="1"/>
  <variable name="X(15,48,393)" index="70132" value="1"/>
  <variable name="X(16,17,282)" index="70655" value="1"/>
  <variable name="X(16,49,363)" index="71370" value="1"/>
  <variable name="X(17,8,317)" index="71958" value="1"/>
  <variable name="X(17,16,363)" index="72638" value="1"/>
  <variable name="X(17,18,421)" index="73330" value="1"/>
  <variable name="X(17,23,302)" index="73845" value="1"/>
  <variable name="X(17,50,278)" index="74455" value="1"/>
  <variable name="X(18,17,317)" index="75128" value="1"/>
  <variable name="X(18,19,421)" index="75866" value="1"/>
  <variable name="X(18,51,96)" index="76175" value="1"/>
  <variable name="X(19,18,96)" index="76809" value="1"/>
  <variable name="X(19,21,313)" index="77660" value="1"/>
  <variable name="X(19,52,421)" index="78402" value="1"/>
  <variable name="X(20,21,346)" index="78961" value="1"/>
  <variable name="X(20,22,347)" index="79596" value="1"/>
  <variable name="X(20,53,142)" index="80025" value="1"/>
  <variable name="X(21,5,313)" index="80830" value="1"/>
  <variable name="X(21,6,353)" index="81504" value="1"/>
  <variable name="X(21,8,278)" index="82063" value="1"/>
  <variable name="X(21,9,252)" index="82671" value="1"/>
  <variable name="X(21,10,504)" index="83557" value="1"/>
  <variable name="X(21,11,32)" index="83719" value="1"/>
  <variable name="X(21,19,96)" index="84417" value="1"/>
  <variable name="X(21,20,142)" index="85097" value="1"/>
  <variable name="X(21,22,250)" index="85839" value="1"/>
  <variable name="X(21,54,346)" index="86569" value="1"/>
  <variable name="X(22,3,602)" index="87459" value="1"/>
  <variable name="X(22,12,563)" index="88054" value="1"/>
  <variable name="X(22,13,536)" index="88661" value="1"/>
  <variable name="X(22,14,393)" index="89152" value="1"/>
  <variable name="X(22,20,69)" index="89462" value="1"/>
  <variable name="X(22,21,252)" index="90279" value="1"/>
  <variable name="X(22,25,517)" index="91178" value="1"/>
  <variable name="X(22,28,19)" index="91314" value="1"/>
  <variable name="X(22,29,273)" index="92202" value="1"/>
  <variable name="X(22,30,407)" index="92970" value="1"/>
  <variable name="X(22,31,250)" index="93447" value="1"/>
  <variable name="X(22,55,347)" index="94178" value="1"/>
  <variable name="X(23,17,421)" index="94886" value="1"/>
  <variable name="X(23,56,302)" index="95401" value="1"/>
  <variable name="X(24,25,431)" index="96164" value="1"/>
  <variable name="X(24,33,444)" index="96811" value="1"/>
  <variable name="X(24,57,622)" index="97623" value="1"/>
  <variable name="X(25,1,58)" index="97693" value="1"/>
  <variable name="X(25,3,24)" index="98293" value="1"/>
  <variable name="X(25,4,431)" index="99334" value="1"/>
  <variable name="X(25,22,19)" index="99556" value="1"/>
  <variable name="X(25,24,102)" index="100273" value="1"/>
  <variable name="X(25,58,517)" index="101322" value="1"/>
  <variable name="X(26,9,504)" index="101943" value="1"/>
  <variable name="X(26,27,148)" index="102221" value="1"/>
  <variable name="X(26,59,372)" index="103079" value="1"/>
  <variable name="X(27,26,504)" index="103845" value="1"/>
  <variable name="X(27,28,518)" index="104493" value="1"/>
  <variable name="X(27,60,19)" index="104628" value="1"/>
  <variable name="X(28,22,517)" index="105760" value="1"/>
  <variable name="X(28,27,19)" index="105896" value="1"/>
  <variable name="X(28,61,518)" index="107029" value="1"/>
  <variable name="X(29,22,536)" index="107681" value="1"/>
  <variable name="X(29,62,579)" index="108358" value="1"/>
  <variable name="X(30,22,563)" index="108976" value="1"/>
  <variable name="X(30,29,579)" index="109626" value="1"/>
  <variable name="X(30,63,407)" index="110088" value="1"/>
  <variable name="X(31,22,602)" index="110917" value="1"/>
  <variable name="X(31,32,599)" index="111548" value="1"/>
  <variable name="X(31,64,250)" index="111833" value="1"/>
  <variable name="X(32,31,602)" index="112819" value="1"/>
  <variable name="X(32,33,622)" index="113473" value="1"/>
  <variable name="X(32,65,599)" index="114084" value="1"/>
  <variable name="X(33,24,622)" index="114741" value="1"/>
  <variable name="X(33,32,444)" index="115197" value="1"/>
 </variables>
</CPLEXSolution>
